NAME: medium15
TYPE: TSP
COMMENT: Test dataset with 15 cities (cluster pattern)
DIMENSION: 15
EDGE_WEIGHT_TYPE: EUC_2D
NODE_COORD_SECTION
1 32.786683 37.596981
2 39.980784 28.543289
3 26.141712 35.863258
4 26.657849 33.860362
5 33.024095 45.509842
6 69.246388 87.979556
7 74.387806 82.223702
8 73.498552 76.299518
9 68.561100 88.928739
10 64.238528 82.882314
11 83.857807 46.755684
12 81.777035 39.414234
13 71.194199 55.402158
14 85.831250 46.322279
15 86.972861 44.976764
EOF
